Maximize
F 

Subject to
F - 10.0y29 - 10.0y14 - 20.0y37 - 20.0y38 - 20.0y15 - 15.0y17 - 10.0y31 - 15.0y36 - 15.0y7 = 0

x26x29x1 + x26x38x1 + x26x15x1 + x26x17x1 + x26x31x1 + x26x36x1 + x26x7x1 
<= 1

x18x14x2 + x18x37x2 + x18x38x2 + x18x15x2 + x18x31x2 
<= 1
x26x29x1 
- x29x0x1
- x29x38x1 - x29x15x1 - x29x17x1 - x29x31x1 - x29x36x1 - x29x7x1 
= 0



x18x14x2 
- x14x0x2
- x14x37x2 - x14x38x2 - x14x15x2 - x14x31x2 
= 0


x18x37x2 + x14x37x2 
- x37x0x2
- x37x31x2 
= 0

x26x38x1 + x29x38x1 
- x38x0x1
- x38x31x1 
= 0
x18x38x2 + x14x38x2 
- x38x0x2
- x38x31x2 
= 0

x26x15x1 + x29x15x1 
- x15x0x1
- x15x7x1 
= 0
x18x15x2 + x14x15x2 
- x15x0x2

= 0

x26x17x1 + x29x17x1 
- x17x0x1

= 0


x26x31x1 + x29x31x1 + x38x31x1 
- x31x0x1

= 0
x18x31x2 + x14x31x2 + x37x31x2 + x38x31x2 
- x31x0x2

= 0

x26x36x1 + x29x36x1 
- x36x0x1

= 0


x26x7x1 + x29x7x1 + x15x7x1 
- x7x0x1

= 0


1y29 - x26x29x1 = 0
1y14 - x18x14x2 = 0
1y37 - x18x37x2 - x14x37x2 = 0
1y38 - x26x38x1 - x29x38x1 = 0
1y38 - x18x38x2 - x14x38x2 = 0
1y15 - x26x15x1 - x29x15x1 = 0
1y15 - x18x15x2 - x14x15x2 = 0
1y17 - x26x17x1 - x29x17x1 = 0
1y31 - x26x31x1 - x29x31x1 - x38x31x1 = 0
1y31 - x18x31x2 - x14x31x2 - x37x31x2 - x38x31x2 = 0
1y36 - x26x36x1 - x29x36x1 = 0
1y7 - x26x7x1 - x29x7x1 - x15x7x1 = 0

s18 - s14 + 6.963568z18z14z2 <= 5.14
s18 - s37 + 6.984859z18z37z2 <= 5.14
s18 - s38 + 7.456077z18z38z2 <= 5.14
s18 - s15 + 7.381191z18z15z2 <= 5.14
s18 - s31 + 7.494845z18z31z2 <= 5.14
s26 - s29 + 6.460603z26z29z1 <= 4.59
s26 - s38 + 6.806885z26z38z1 <= 4.59
s26 - s15 + 6.838646z26z15z1 <= 4.59
s26 - s17 + 6.505609z26z17z1 <= 4.59
s26 - s31 + 6.808396z26z31z1 <= 4.59
s26 - s36 + 6.309909z26z36z1 <= 4.59
s26 - s7 + 6.789629z26z7z1 <= 4.59
s29 - s38 + 9.555778z29z38z1 <= 8.20
s29 - s15 + 9.583261z29z15z1 <= 8.20
s29 - s17 + 9.370749z29z17z1 <= 8.20
s29 - s31 + 9.573869z29z31z1 <= 8.20
s29 - s36 + 9.425586z29z36z1 <= 8.20
s29 - s7 + 9.611231z29z7z1 <= 8.20
s14 - s37 + 9.357488z14z37z2 <= 8.33
s14 - s38 + 9.998697z14z38z2 <= 8.33
s14 - s15 + 10.029078z14z15z2 <= 8.33
s14 - s31 + 10.005936z14z31z2 <= 8.33
s37 - s31 + 10.266889z37z31z2 <= 8.59
s38 - s31 + 10.195660z38z31z1 <= 9.13
s38 - s31 + 10.195660z38z31z2 <= 9.13
s15 - s7 + 10.387058z15z7z1 <= 9.16

x18x14x2 - 1z18z14z2 <= 0
x18x37x2 - 1z18z37z2 <= 0
x18x38x2 - 1z18z38z2 <= 0
x18x15x2 - 1z18z15z2 <= 0
x18x31x2 - 1z18z31z2 <= 0
x26x29x1 - 1z26z29z1 <= 0
x26x38x1 - 1z26z38z1 <= 0
x26x15x1 - 1z26z15z1 <= 0
x26x17x1 - 1z26z17z1 <= 0
x26x31x1 - 1z26z31z1 <= 0
x26x36x1 - 1z26z36z1 <= 0
x26x7x1 - 1z26z7z1 <= 0
x29x38x1 - 1z29z38z1 <= 0
x29x15x1 - 1z29z15z1 <= 0
x29x17x1 - 1z29z17z1 <= 0
x29x31x1 - 1z29z31z1 <= 0
x29x36x1 - 1z29z36z1 <= 0
x29x7x1 - 1z29z7z1 <= 0
x29x0x1 <= 1
x14x37x2 - 1z14z37z2 <= 0
x14x38x2 - 1z14z38z2 <= 0
x14x15x2 - 1z14z15z2 <= 0
x14x31x2 - 1z14z31z2 <= 0
x14x0x2 <= 1
x37x31x2 - 1z37z31z2 <= 0
x37x0x2 <= 1
x38x31x1 - 1z38z31z1 <= 0
x38x31x2 - 1z38z31z2 <= 0
x38x0x1 <= 1
x38x0x2 <= 1
x15x7x1 - 1z15z7z1 <= 0
x15x0x1 <= 1
x15x0x2 <= 1
x17x0x1 <= 1
x31x0x1 <= 1
x31x0x2 <= 1
x36x0x1 <= 1
x7x0x1 <= 1

s29 - 6.00z26z29z1 >= 0
s14 - 6.00z18z14z2 >= 0
s37 - 6.00z18z37z2 >= 0
s37 - 6.00z14z37z2 >= 0
s38 - 6.00z18z38z2 >= 0
s38 - 6.00z26z38z1 >= 0
s38 - 6.00z29z38z1 >= 0
s38 - 6.00z14z38z2 >= 0
s15 - 6.00z18z15z2 >= 0
s15 - 6.00z26z15z1 >= 0
s15 - 6.00z29z15z1 >= 0
s15 - 6.00z14z15z2 >= 0
s17 - 6.00z26z17z1 >= 0
s17 - 6.00z29z17z1 >= 0
s31 - 6.00z18z31z2 >= 0
s31 - 6.00z26z31z1 >= 0
s31 - 6.00z29z31z1 >= 0
s31 - 6.00z14z31z2 >= 0
s31 - 6.00z37z31z2 >= 0
s31 - 6.00z38z31z1 >= 0
s31 - 6.00z38z31z2 >= 0
s36 - 6.00z26z36z1 >= 0
s36 - 6.00z29z36z1 >= 0
s7 - 6.00z26z7z1 >= 0
s7 - 6.00z29z7z1 >= 0
s7 - 6.00z15z7z1 >= 0

Bounds
s18 = 5.138166
s26 = 4.586430
7.200000 <= s29 <= 8.200000
7.330000 <= s14 <= 8.330000
7.590000 <= s37 <= 8.590000
8.130000 <= s38 <= 9.130000
8.160000 <= s15 <= 9.160000
8.280000 <= s17 <= 9.280000
8.340000 <= s31 <= 9.340000
8.460000 <= s36 <= 9.460000
8.470000 <= s7 <= 9.470000

General
x18x14x2 x18x37x2 x18x38x2 x18x15x2 x18x31x2 
x26x29x1 x26x38x1 x26x15x1 x26x17x1 x26x31x1 x26x36x1 x26x7x1 
x29x38x1 x29x15x1 x29x17x1 x29x31x1 x29x36x1 x29x7x1 x29x0x1 
x14x37x2 x14x38x2 x14x15x2 x14x31x2 x14x0x2 
x37x31x2 x37x0x2 
x38x31x1 x38x31x2 x38x0x1 x38x0x2 
x15x7x1 x15x0x1 x15x0x2 
x17x0x1 
x31x0x1 x31x0x2 
x36x0x1 
x7x0x1 

Binaries
y29 y14 y37 y38 y15 y17 y31 y36 y7 
z18z14z2 z18z37z2 z18z38z2 z18z15z2 z18z31z2 
z26z29z1 z26z38z1 z26z15z1 z26z17z1 z26z31z1 z26z36z1 z26z7z1 
z29z38z1 z29z15z1 z29z17z1 z29z31z1 z29z36z1 z29z7z1 
z14z37z2 z14z38z2 z14z15z2 z14z31z2 
z37z31z2 
z38z31z1 z38z31z2 
z15z7z1 





End